46
75
52	14
51	9
50	21
49	16
48	12
47	15
46	17
45	18
44	17
43	12
42	18
41	18
40	13
39	17
38	14
37	15
36	15
35	18
34	10
33	12
32	12
31	18
30	15
29	17
28	20
27	23
26	18
25	12
24	19
23	22
22	24
21	20
20	19
19	19
18	24
17	13
16	8
15	16
14	18
13	23
12	7
11	15
10	19
9	17
8	10
7	21
